# Solution for model GasLib-40
# Objective value = 1.5157503988254499e+01
loadshed[innode_1] 0
loadshed[innode_2] 0
loadshed[innode_3] 0
loadshed[innode_4] 0
loadshed[innode_5] 0
loadshed[innode_6] 0
loadshed[innode_7] 0
loadshed[innode_8] 0
loadshed[source_1] -1.9975684233990565e-01
loadshed[source_2] -3.0816870008871122e-02
loadshed[source_3] 3.2645249883275829e-01
loadshed[sink_1] 0
loadshed[sink_2] 0
loadshed[sink_3] 0
loadshed[sink_4] 0
loadshed[sink_5] 0
loadshed[sink_6] 0
loadshed[sink_7] 0
loadshed[sink_8] 0
loadshed[sink_9] 0
loadshed[sink_10] 0
loadshed[sink_11] 0
loadshed[sink_12] 0.926828269345498
loadshed[sink_13] 0
loadshed[sink_14] 0
loadshed[sink_15] 0
loadshed[sink_16] 0
loadshed[sink_17] 0
loadshed[sink_18] 0
loadshed[sink_19] 0
loadshed[sink_20] 0
loadshed[sink_21] 0
loadshed[sink_22] 0
loadshed[sink_23] 0
loadshed[sink_24] 0
loadshed[sink_25] 0
loadshed[sink_26] 0
loadshed[sink_27] 0
loadshed[sink_28] 0
loadshed[sink_29] 0
flow[source_1,sink_3] 1.8966989247130522e+02
flow[innode_1,sink_16] 1.6354166666666970e+01
flow[innode_6,sink_13] 7.9978551106098976e+00
flow[sink_13,sink_14] -8.35631155605677
flow[sink_14,sink_10] -2.4710478222723623e+01
flow[sink_25,sink_26] 2.3015499601174648e+02
flow[sink_26,sink_9] 1.4838416267841313e+02
flow[sink_9,sink_18] 1.3202999601174648e+02
flow[sink_26,sink_4] 6.5416666666666671e+01
flow[sink_4,sink_20] 1.9401072958387804e+01
flow[sink_18,sink_6] 1.1567582934507982e+02
flow[sink_25,innode_8] -1.5696155913796883e+02
flow[sink_6,sink_7] 6.6613329345078910e+01
flow[sink_6,sink_22] 3.2708333333333641e+01
flow[sink_7,sink_24] 33.9049960117455
flow[sink_22,sink_1] 1.6354166666666970e+01
flow[sink_24,sink_21] 1.7550829345078839e+01
flow[sink_21,sink_12] 1.1966626784121690e+00
flow[sink_7,sink_5] 1.6354166666667368e+01
flow[sink_5,sink_17] 0
flow[sink_17,sink_4] -2.9661427041612342e+01
flow[sink_17,sink_8] 1.3307260374945638e+01
flow[sink_3,sink_23] 16.3541666666697
flow[sink_8,sink_20] -3.0469062917210294e+00
flow[sink_25,sink_20] 0
flow[sink_25,sink_15] -9.7545458651053977e+01
flow[sink_15,sink_29] -6.3416045193339919e+01
flow[sink_29,sink_28] 1.6354166666667879e+01
flow[sink_29,sink_2] 66.8377467910474
flow[sink_2,sink_15] 5.0483580124380730e+01
flow[sink_29,innode_7] -1.6296212531772187e+02
flow[innode_4,sink_19] 4.0748888124845131e+01
flow[sink_19,innode_3] 0
flow[innode_4,innode_5] 6.5732423431212212e+01
flow[sink_27,innode_5] -6.5732423431212212e+01
flow[sink_27,sink_19] 4.9378256764545540e+01
flow[sink_10,sink_11] 3.2708333333333641e+01
flow[sink_10,innode_2] -7.3772978222723978e+01
flow[sink_10,innode_3] 0
flow[innode_6,sink_25] -7.9978551106098976e+00
flow[sink_11,innode_1] 1.6354166666666970e+01
flow[sink_19,innode_2] 7.3772978222723978e+01
flow[source_3,innode_4] 1.0648131155605734e+02
flow[source_2,innode_7] 1.6296212531772187e+02
flow[sink_3,innode_8] 1.5696155913796883e+02
pressure[innode_1] 75.3115008142502
pressure[innode_2] 7.9362408713303807e+01
pressure[innode_3] 7.5463202121853740e+01
pressure[innode_4] 81.01325
pressure[innode_5] 8.0968035773082590e+01
pressure[innode_6] 7.4323567706367186e+01
pressure[innode_7] 81.01325
pressure[innode_8] 8.0379256005993611e+01
pressure[source_1] 81.01325
pressure[source_2] 81.01325
pressure[source_3] 81.01325
pressure[sink_1] 3.9265505955631767e+01
pressure[sink_2] 7.4961575993953815e+01
pressure[sink_3] 8.0379256005993611e+01
pressure[sink_4] 4.9796642193902031e+01
pressure[sink_5] 3.3650571309361759e+01
pressure[sink_6] 4.1366583566019138e+01
pressure[sink_7] 4.0452141336256474e+01
pressure[sink_8] 4.8160962752544954e+01
pressure[sink_9] 4.9232711394508726e+01
pressure[sink_10] 7.5463202121853740e+01
pressure[sink_11] 75.3115008142502
pressure[sink_12] 1.01325
pressure[sink_13] 7.4279476867708141e+01
pressure[sink_14] 7.4294431199038058e+01
pressure[sink_15] 7.4796758231249555e+01
pressure[sink_16] 7.4289850979432515e+01
pressure[sink_17] 4.8663080257903985e+01
pressure[sink_18] 4.4455472621738245e+01
pressure[sink_19] 7.9362408713303807e+01
pressure[sink_20] 4.8373289271608890e+01
pressure[sink_21] 1.4390880745825509e+00
pressure[sink_22] 4.0329275097986773e+01
pressure[sink_23] 8.0214537994333824e+01
pressure[sink_24] 1.6334472029140665e+00
pressure[sink_25] 7.4323567706367186e+01
pressure[sink_26] 58.1138864997935
pressure[sink_27] 8.0422578119062109e+01
pressure[sink_28] 7.6359369277526227e+01
pressure[sink_29] 76.6546515511434
interdiction[source_1,sink_3] 0
interdiction[innode_1,sink_16] 0
interdiction[innode_6,sink_13] 0
interdiction[sink_13,sink_14] 0
interdiction[sink_14,sink_10] 0
interdiction[sink_25,sink_26] 0
interdiction[sink_26,sink_9] 0
interdiction[sink_9,sink_18] 0
interdiction[sink_26,sink_4] 0
interdiction[sink_4,sink_20] 0
interdiction[sink_18,sink_6] 0
interdiction[sink_25,innode_8] 0
interdiction[sink_6,sink_7] 0
interdiction[sink_6,sink_22] 0
interdiction[sink_7,sink_24] 0
interdiction[sink_22,sink_1] 0
interdiction[sink_24,sink_21] 0
interdiction[sink_21,sink_12] 0
interdiction[sink_7,sink_5] 0
interdiction[sink_5,sink_17] 1
interdiction[sink_17,sink_4] 0
interdiction[sink_17,sink_8] 0
interdiction[sink_3,sink_23] 0
interdiction[sink_8,sink_20] 0
interdiction[sink_25,sink_20] 1
interdiction[sink_25,sink_15] 0
interdiction[sink_15,sink_29] 0
interdiction[sink_29,sink_28] 0
interdiction[sink_29,sink_2] 0
interdiction[sink_2,sink_15] 0
interdiction[sink_29,innode_7] 0
interdiction[innode_4,sink_19] 0
interdiction[sink_19,innode_3] 1
interdiction[innode_4,innode_5] 0
interdiction[sink_27,innode_5] 0
interdiction[sink_27,sink_19] 0
interdiction[sink_10,sink_11] 0
interdiction[sink_10,innode_2] 0
interdiction[sink_10,innode_3] 0
interdiction[innode_6,sink_25] 0
interdiction[sink_11,innode_1] 0
interdiction[sink_19,innode_2] 0
interdiction[source_3,innode_4] 0
interdiction[source_2,innode_7] 0
interdiction[sink_3,innode_8] 0
WCcheckFlow[source_1,sink_3] 39
WCcheckFlow[innode_1,sink_16] 1
WCcheckFlow[innode_6,sink_13] 13
WCcheckFlow[sink_13,sink_14] 12
WCcheckFlow[sink_14,sink_10] 11
WCcheckFlow[sink_25,sink_26] 15
WCcheckFlow[sink_26,sink_9] 10
WCcheckFlow[sink_9,sink_18] 9
WCcheckFlow[sink_26,sink_4] 4
WCcheckFlow[sink_4,sink_20] 1
WCcheckFlow[sink_18,sink_6] 8
WCcheckFlow[sink_25,innode_8] -36
WCcheckFlow[sink_6,sink_7] 5
WCcheckFlow[sink_6,sink_22] 2
WCcheckFlow[sink_7,sink_24] 3
WCcheckFlow[sink_22,sink_1] 1
WCcheckFlow[sink_24,sink_21] 2
WCcheckFlow[sink_21,sink_12] 1
WCcheckFlow[sink_7,sink_5] 1
WCcheckFlow[sink_5,sink_17] 0
WCcheckFlow[sink_17,sink_4] -2
WCcheckFlow[sink_17,sink_8] 1
WCcheckFlow[sink_3,sink_23] 1
WCcheckFlow[sink_8,sink_20] 0
WCcheckFlow[sink_25,sink_20] 0
WCcheckFlow[sink_25,sink_15] 6
WCcheckFlow[sink_15,sink_29] 5
WCcheckFlow[sink_29,sink_28] 1
WCcheckFlow[sink_29,sink_2] 1
WCcheckFlow[sink_2,sink_15] 0
WCcheckFlow[sink_29,innode_7] 2
WCcheckFlow[innode_4,sink_19] -4
WCcheckFlow[sink_19,innode_3] 0
WCcheckFlow[innode_4,innode_5] 2
WCcheckFlow[sink_27,innode_5] -1
WCcheckFlow[sink_27,sink_19] 0
WCcheckFlow[sink_10,sink_11] 3
WCcheckFlow[sink_10,innode_2] 6
WCcheckFlow[sink_10,innode_3] 1
WCcheckFlow[innode_6,sink_25] -14
WCcheckFlow[sink_11,innode_1] 2
WCcheckFlow[sink_19,innode_2] -5
WCcheckFlow[source_3,innode_4] -1
WCcheckFlow[source_2,innode_7] -1
WCcheckFlow[sink_3,innode_8] 37
